99 17 98 85 12 37 54 45 87 95 70 38 47 92 97 30 36 94 23 90 96 27 78 84 48 52 68 59 15 67 82 20 14 72 63 8 93 4 9 71 41 19 3 61 22 40 44 51 0 53 33 7 62 80 77 73 55 60 56 6 83 88 57 28 25 76 49 66 35 89 64 11 74 34 10 1 65 58 42 69 24 75 29 32 21 79 50 2 18 46 91 81 26 86 31 5 43 13 39 16